c description: Random 4-CNF over 7 variables and 5 clauses
c generator: CNFgen (0.9.2)
c copyright: (C) 2012-2022 Massimo Lauria <massimo.lauria@uniroma1.it>
c url: https://massimolauria.net/cnfgen
c command line: cnfgen randkcnf 4 7 5
c
p cnf 7 5
4 -5 -6 -7 0
-3 4 6 -7 0
1 3 -4 6 0
-2 3 4 -6 0
1 -4 6 -7 0
